$ nonogram instance, generated by: nonogen 10 5 0.42 0.9 0.4 1949769048
$ MULTIPLE SOLUTIONS
$ .##..
$ #...#
$ #.##.
$ .#...
$ .....
$ ..###
$ ..##.
$ #.#..
$ ##.#.
$ ##..#
letting m be 10
letting n be 5
letting rowRules be [
sequence(2),
sequence(1,1),
sequence(1,2),
sequence(1),
sequence(),
sequence(3),
sequence(2),
sequence(1,1),
sequence(2,1),
sequence(2,1)]
letting colRules be [
sequence(2,3),
sequence(1,1,2),
sequence(1,1,3),
sequence(1,2,1),
sequence(1,1,1)]
